
Starting CP-SAT solver v9.15.6755
Parameters: random_seed: 2026073266 max_time_in_seconds: 6939.9999994456666 log_search_progress: true cp_model_presolve: true linearization_level: 2 num_search_workers: 4 cp_model_probing_level: 2 symmetry_level: 2

Initial satisfaction model '': (model_fingerprint: 0x1e66676623d2b7c4)
#Variables: 724 (608 primary variables)
  - 724 Booleans in [0,1]
#kBoolAnd: 110 (#enforced: 110) (#literals: 330)
#kBoolOr: 110 (#enforced: 110) (#literals: 220)
#kExactlyOne: 87 (#literals: 261)
#kLinear1: 32 (#enforced: 6)
#kLinear2: 336 (#enforced: 336) (#complex_domain: 110)
#kLinear3: 1'600 (#enforced: 6)
#kLinearN: 1'132 (#enforced: 243) (#terms: 9'111)

Starting presolve at 0.00s
  7.38e-04s  0.00e+00d  [DetectDominanceRelations] 
  9.08e-03s  0.00e+00d  [PresolveToFixPoint] #num_loops=3 #num_dual_strengthening=1 
  3.62e-05s  0.00e+00d  [ExtractEncodingFromLinear] #potential_supersets=82 
  2.93e-04s  0.00e+00d  [DetectDuplicateColumns] 
  1.04e-04s  0.00e+00d  [DetectDuplicateConstraints] #duplicates=5 
[Symmetry] Graph for symmetry has 4'869 nodes and 15'718 arcs.
[Symmetry] Symmetry computation done. time: 0.00130813 dtime: 0.00179803
[SAT presolve] num removable Booleans: 220 / 626
[SAT presolve] num trivial clauses: 0
[SAT presolve] [0s] clauses:2'730 literals:7'422 vars:506 one_side_vars:66 simple_definition:1 singleton_clauses:0
[SAT presolve] [0.000238346s] clauses:2'729 literals:7'415 vars:506 one_side_vars:66 simple_definition:1 singleton_clauses:0
[SAT presolve] [0.000624263s] clauses:2'408 literals:6'910 vars:389 one_side_vars:68 simple_definition:24 singleton_clauses:0
  1.26e-04s  0.00e+00d  [DetectDuplicateConstraintsWithDifferentEnforcements] 
  5.71e-03s  2.66e-03d  [Probe] #probed=1'295 #fixed_bools=21 #equiv=12 #new_binary_clauses=758 
  5.53e-04s  3.14e-04d  [MaxClique] Merged 653 constraints with 1'423 literals into 589 constraints with 1'309 literals
  9.46e-04s  0.00e+00d  [DetectDominanceRelations] 
  3.26e-03s  0.00e+00d  [PresolveToFixPoint] #num_loops=1 #num_dual_strengthening=1 
  1.21e-03s  0.00e+00d  [ProcessAtMostOneAndLinear] 
  1.25e-04s  0.00e+00d  [DetectDuplicateConstraints] #duplicates=12 
  8.83e-05s  0.00e+00d  [DetectDuplicateConstraintsWithDifferentEnforcements] 
  3.10e-03s  9.47e-05d  [DetectDominatedLinearConstraints] #relevant_constraints=824 #num_inclusions=466 #num_redundant=7 
  1.25e-04s  0.00e+00d  [DetectDifferentVariables] 
  8.12e-04s  8.76e-05d  [ProcessSetPPC] #relevant_constraints=3'124 #num_inclusions=233 
  2.86e-04s  3.42e-05d  [TransformClausesToExactlyOne] #num_amos=560 #num_clauses=1'757 #num_checked=1'757 
  5.12e-05s  0.00e+00d  [DetectEncodedComplexDomains] 
  3.20e-05s  0.00e+00d  [FindAlmostIdenticalLinearConstraints] 
  9.86e-04s  1.37e-03d  [FindBigAtMostOneAndLinearOverlap] 
  1.59e-03s  1.20e-03d  [FindBigVerticalLinearOverlap] #blocks=5 #saved_nz=290 
  3.44e-04s  5.91e-04d  [FindBigHorizontalLinearOverlap] #linears=456 
  3.58e-04s  2.78e-05d  [MergeClauses] #num_collisions=12 #num_merges=12 #num_saved_literals=45 
  9.08e-04s  0.00e+00d  [DetectDominanceRelations] 
  3.18e-03s  0.00e+00d  [PresolveToFixPoint] #num_loops=2 #num_dual_strengthening=1 
  9.01e-04s  0.00e+00d  [DetectDominanceRelations] 
  3.02e-03s  0.00e+00d  [PresolveToFixPoint] #num_loops=1 #num_dual_strengthening=1 
  1.73e-04s  0.00e+00d  [DetectDuplicateColumns] 
  9.04e-05s  0.00e+00d  [DetectDuplicateConstraints] 
[Symmetry] Graph for symmetry has 4'424 nodes and 13'558 arcs.
[Symmetry] Symmetry computation done. time: 0.0010206 dtime: 0.00142926
[SAT presolve] num removable Booleans: 102 / 476
[SAT presolve] num trivial clauses: 0
[SAT presolve] [0s] clauses:2'287 literals:6'625 vars:449 one_side_vars:135 simple_definition:35 singleton_clauses:0
[SAT presolve] [0.000241471s] clauses:2'287 literals:6'466 vars:449 one_side_vars:148 simple_definition:82 singleton_clauses:0
[SAT presolve] [0.000376012s] clauses:2'155 literals:6'170 vars:444 one_side_vars:172 simple_definition:65 singleton_clauses:0
  1.56e-04s  0.00e+00d  [DetectDuplicateConstraintsWithDifferentEnforcements] #without_enforcements=1 
  5.28e-03s  1.68e-03d  [Probe] #probed=1'274 #new_binary_clauses=174 
  3.70e-04s  1.92e-04d  [MaxClique] Merged 481 constraints with 1'025 literals into 471 constraints with 1'019 literals
  8.97e-04s  0.00e+00d  [DetectDominanceRelations] 
  3.03e-03s  0.00e+00d  [PresolveToFixPoint] #num_loops=1 #num_dual_strengthening=1 
  1.09e-03s  0.00e+00d  [ProcessAtMostOneAndLinear] 
  1.00e-04s  0.00e+00d  [DetectDuplicateConstraints] 
  8.79e-05s  0.00e+00d  [DetectDuplicateConstraintsWithDifferentEnforcements] 
  1.36e-03s  5.79e-05d  [DetectDominatedLinearConstraints] #relevant_constraints=819 #num_inclusions=318 
  1.40e-04s  0.00e+00d  [DetectDifferentVariables] 
  7.44e-04s  7.04e-05d  [ProcessSetPPC] #relevant_constraints=3'035 #num_inclusions=79 
  3.10e-04s  3.26e-05d  [TransformClausesToExactlyOne] #num_amos=473 #num_clauses=1'699 #num_checked=1'699 
  4.41e-05s  0.00e+00d  [DetectEncodedComplexDomains] 
  3.73e-05s  1.00e-07d  [FindAlmostIdenticalLinearConstraints] #num_tested_pairs=1 
  8.27e-04s  9.76e-04d  [FindBigAtMostOneAndLinearOverlap] 
  1.22e-03s  8.67e-04d  [FindBigVerticalLinearOverlap] 
  3.50e-04s  5.91e-04d  [FindBigHorizontalLinearOverlap] #linears=456 
  3.52e-04s  2.63e-05d  [MergeClauses] #num_collisions=73 #num_merges=73 #num_saved_literals=193 
  9.10e-04s  0.00e+00d  [DetectDominanceRelations] 
  3.06e-03s  0.00e+00d  [PresolveToFixPoint] #num_loops=1 #num_dual_strengthening=1 
  8.98e-04s  0.00e+00d  [DetectDominanceRelations] 
  3.05e-03s  0.00e+00d  [PresolveToFixPoint] #num_loops=1 #num_dual_strengthening=1 
  2.28e-04s  0.00e+00d  [DetectDuplicateColumns] 
  9.71e-05s  0.00e+00d  [DetectDuplicateConstraints] 
[Symmetry] Graph for symmetry has 4'230 nodes and 12'846 arcs.
[Symmetry] Symmetry computation done. time: 0.000953083 dtime: 0.00132839
[SAT presolve] num removable Booleans: 97 / 471
[SAT presolve] num trivial clauses: 0
[SAT presolve] [0s] clauses:2'140 literals:6'134 vars:444 one_side_vars:172 simple_definition:65 singleton_clauses:0
[SAT presolve] [0.000215632s] clauses:2'140 literals:6'134 vars:444 one_side_vars:172 simple_definition:65 singleton_clauses:0
[SAT presolve] [0.000284084s] clauses:2'140 literals:6'134 vars:444 one_side_vars:172 simple_definition:65 singleton_clauses:0
  1.60e-04s  0.00e+00d  [DetectDuplicateConstraintsWithDifferentEnforcements] 
  5.17e-03s  1.67e-03d  [Probe] #probed=1'274 #new_binary_clauses=173 
  3.74e-04s  1.90e-04d  [MaxClique] Merged 470 constraints with 1'009 literals into 469 constraints with 1'008 literals
  9.04e-04s  0.00e+00d  [DetectDominanceRelations] 
  3.06e-03s  0.00e+00d  [PresolveToFixPoint] #num_loops=1 #num_dual_strengthening=1 
  1.10e-03s  0.00e+00d  [ProcessAtMostOneAndLinear] 
  1.04e-04s  0.00e+00d  [DetectDuplicateConstraints] 
  1.04e-04s  0.00e+00d  [DetectDuplicateConstraintsWithDifferentEnforcements] 
  1.36e-03s  5.79e-05d  [DetectDominatedLinearConstraints] #relevant_constraints=819 #num_inclusions=318 
  1.31e-04s  0.00e+00d  [DetectDifferentVariables] 
  7.65e-04s  7.03e-05d  [ProcessSetPPC] #relevant_constraints=3'035 #num_inclusions=77 
  2.98e-04s  3.27e-05d  [TransformClausesToExactlyOne] #num_amos=469 #num_clauses=1'701 #num_checked=1'701 
  5.02e-05s  0.00e+00d  [DetectEncodedComplexDomains] 
  4.18e-05s  0.00e+00d  [FindAlmostIdenticalLinearConstraints] 
  8.24e-04s  9.74e-04d  [FindBigAtMostOneAndLinearOverlap] 
  1.23e-03s  8.67e-04d  [FindBigVerticalLinearOverlap] 
  3.68e-04s  5.91e-04d  [FindBigHorizontalLinearOverlap] #linears=456 
  3.45e-04s  2.63e-05d  [MergeClauses] #num_collisions=74 #num_merges=74 #num_saved_literals=195 
  9.20e-04s  0.00e+00d  [DetectDominanceRelations] 
  3.12e-03s  0.00e+00d  [PresolveToFixPoint] #num_loops=1 #num_dual_strengthening=1 
  2.20e-05s  0.00e+00d  [MergeNoOverlap] 
  2.11e-05s  0.00e+00d  [MergeNoOverlap2D] 

Presolve summary:
  - 43 affine relations were detected.
  - rule 'TODO dual: only one blocking constraint?' was applied 799 times.
  - rule 'TODO linear inclusion: superset is equality' was applied 266 times.
  - rule 'affine: new relation' was applied 43 times.
  - rule 'at_most_one: removed literals' was applied 89 times.
  - rule 'at_most_one: size one' was applied 88 times.
  - rule 'at_most_one: transformed into max clique' was applied 3 times.
  - rule 'bool_or: implications' was applied 75 times.
  - rule 'bool_or: only one literal' was applied 12 times.
  - rule 'bool_or: removed enforcement literal' was applied 557 times.
  - rule 'deductions: 853 stored' was applied 1 time.
  - rule 'duplicate: merged rhs of linear constraint' was applied 16 times.
  - rule 'duplicate: removed constraint' was applied 17 times.
  - rule 'duplicate: removed enforced constraint' was applied 1 time.
  - rule 'enforcement: false literal' was applied 40 times.
  - rule 'enforcement: true literal' was applied 14 times.
  - rule 'exactly_one: removed literals' was applied 32 times.
  - rule 'exactly_one: satisfied' was applied 3 times.
  - rule 'exactly_one: singleton' was applied 2 times.
  - rule 'exactly_one: size two' was applied 30 times.
  - rule 'exactly_one: x and not(x)' was applied 9 times.
  - rule 'incompatible linear: add implication' was applied 117 times.
  - rule 'linear + amo: empty after processing' was applied 6 times.
  - rule 'linear + amo: extracted enforcement literal' was applied 54 times.
  - rule 'linear inclusion: redundant containing constraint' was applied 3 times.
  - rule 'linear inclusion: redundant included constraint' was applied 3 times.
  - rule 'linear inclusion: sparsify superset' was applied 1 time.
  - rule 'linear matrix: common vertical rectangle' was applied 5 times.
  - rule 'linear1: always true' was applied 1 time.
  - rule 'linear1: x in domain' was applied 26 times.
  - rule 'linear2: convert ax + by != cte to clauses' was applied 260 times.
  - rule 'linear2: convert implied ax + by == cte to clauses' was applied 114 times.
  - rule 'linear2: implied ax + by = cte has only one solution' was applied 9 times.
  - rule 'linear: always true' was applied 414 times.
  - rule 'linear: empty' was applied 3 times.
  - rule 'linear: enforcement literal in expression' was applied 2 times.
  - rule 'linear: extracted at most one (max)' was applied 1 time.
  - rule 'linear: fixed or dup variables' was applied 882 times.
  - rule 'linear: negative clause' was applied 1'295 times.
  - rule 'linear: negative reified and' was applied 78 times.
  - rule 'linear: never in domain' was applied 6 times.
  - rule 'linear: positive at most one' was applied 30 times.
  - rule 'linear: reduced variable domains' was applied 6 times.
  - rule 'linear: remapped using affine relations' was applied 26 times.
  - rule 'presolve: 87 unused variables removed.' was applied 1 time.
  - rule 'presolve: iteration' was applied 3 times.
  - rule 'probing: bool_or reduced to implication' was applied 33 times.
  - rule 'probing: simplified clauses' was applied 9 times.
  - rule 'setppc: bool_or in at_most_one' was applied 7 times.
  - rule 'setppc: removed dominated constraints' was applied 81 times.
  - rule 'variables: both boolean and its negation fix the same variable' was applied 1 time.
  - rule 'variables: detect half reified value encoding' was applied 2 times.

Presolved satisfaction model '': (model_fingerprint: 0xdda3ac2784848559)
#Variables: 475 (406 primary variables)
  - 471 Booleans in [0,1]
  - 3 in [0,2]
  - 1 in [0,9]
#kAtMostOne: 32 (#literals: 134)
#kBoolAnd: 260 (#enforced: 260) (#literals: 697)
#kBoolAndClauses: 74 (#enforced: 74 #multi: 74) (#literals: 343)
#kBoolOr: 1'553 (#literals: 4'718)
#kExactlyOne: 49 (#literals: 187)
#kLinear3: 3 (#enforced: 2)
#kLinearN: 816 (#enforced: 116) (#terms: 5'486)
[Symmetry] Graph for symmetry has 3'974 nodes and 12'841 arcs.
[Symmetry] Symmetry computation done. time: 0.000848597 dtime: 0.00131183

Preloading model.
#Model   0.10s var:475/475 constraints:2787/2787

Starting search at 0.10s with 4 workers.
3 full problem subsolvers: [default_lp, max_lp, no_lp]
1 first solution subsolver: [fj]
2 interleaved subsolvers: [feasibility_pump, rins/rens]
2 helper subsolvers: [neighborhood_helper, synchronization_agent]

#Model   0.60s var:473/475 constraints:2786/2787
#Model 204.16s var:472/475 constraints:2771/2787
#Model 881.44s var:471/475 constraints:2769/2787
#Model 1084.23s var:470/475 constraints:2753/2787
#Model 2620.68s var:469/475 constraints:2736/2787
#Model 2961.67s var:468/475 constraints:2718/2787
#Model 2971.45s var:467/475 constraints:2699/2787
#Model 2991.57s var:466/475 constraints:2686/2787
#Model 3003.05s var:465/475 constraints:2684/2787
#Model 3003.59s var:464/475 constraints:2668/2787
#Model 3007.62s var:462/475 constraints:2627/2787
#Model 3013.15s var:448/475 constraints:2423/2787
#Model 3013.77s var:444/475 constraints:2401/2787
#Model 3013.87s var:443/475 constraints:2384/2787
#Model 3013.96s var:442/475 constraints:2368/2787
#Model 3014.07s var:416/475 constraints:2248/2787
#Model 3014.11s var:392/475 constraints:1931/2787
#Done  3014.15s no_lp

Task timing                   n [     min,      max]      avg      dev     time         n [     min,      max]      avg      dev    dtime
        'default_lp':         1 [  50.23m,   50.23m]   50.23m   0.00ns   50.23m         2 [  1.67ms,   48.20m]   24.10m   24.10m   48.20m
  'feasibility_pump':     14941 [848.61us, 165.94ms]   1.59ms   1.39ms   23.74s     14940 [285.23us, 144.91ms] 297.35us   1.18ms    4.44s
                'fj':     11374 [ 58.94ms, 185.12ms] 131.36ms   8.94ms   24.90m     11374 [ 36.58ms, 100.17ms] 100.01ms 595.01us   18.96m
            'max_lp':         1 [  50.23m,   50.23m]   50.23m   0.00ns   50.23m         2 [ 82.92ms,    1.09h]   32.63m   32.63m    1.09h
             'no_lp':         1 [  50.23m,   50.23m]   50.23m   0.00ns   50.23m         2 [  1.45ms,    1.69h]   50.73m   50.73m    1.69h
         'rins/rens':     13579 [  1.77ms, 199.47ms] 110.04ms  41.36ms   24.90m     13577 [165.17us, 100.30ms]  67.95ms  37.33ms   15.38m

Search stats     Bools   Conflicts    Branches  Restarts  BacktrackToRoot   Backtrack     BoolPropag  IntegerPropag
  'default_lp':    471     257'374   8'410'251     1'394        1'210'936   1'781'252     78'311'500     94'208'741
      'max_lp':    471     162'841  10'895'277       820        1'552'755   2'095'852     98'328'342    124'672'937
       'no_lp':    471  24'167'653  31'597'843    80'365          540'713  24'474'371  1'843'103'995    469'508'857

SAT formula      Fixed  Equiv  Total  VarLeft  BinaryClauses  PermanentClauses  TemporaryClauses
  'default_lp':      6      2    471      463          2'596            47'017             7'303
      'max_lp':     11      3    471      457          2'620            36'507             2'930
       'no_lp':    167      3    471      301          2'654            62'265             3'465

SAT stats        ClassicMinim   LitRemoved  LitRemovedBinary   LitLearned  LitForgotten   Subsumed
  'default_lp':       224'546    3'056'377         1'262'312    7'434'624     4'715'125     95'244
      'max_lp':       139'255    1'709'189           754'655    3'915'589     2'314'396     54'427
       'no_lp':    21'788'042  372'155'455       112'008'276  552'853'800   421'666'955  7'370'341

Vivification       Clauses   Decisions  LitTrue  Subsumed  LitRemoved  DecisionReused  Conflicts
  'default_lp':  1'238'374   7'807'068        1    21'745     227'890         371'853      1'997
      'max_lp':  1'541'110  10'301'488        0    26'092     275'503         444'665      2'626
       'no_lp':    372'876   3'304'374        0    26'245     353'109          88'098      1'542

Clause deletion    at_true  l_and_not(l)  to_binary  sub_conflict  sub_extra  sub_decisions  sub_eager  sub_vivify  sub_probing  sub_inpro  blocked  eliminated   forgotten    promoted   conflicts
    'default_lp':    3'080             1          5        93'844        651          3'317      1'400      21'745        6'419     24'068        0           0     131'252     508'413     257'374
        'max_lp':   12'626             0         17        53'770        405          1'500        657      26'092        8'259     23'365        0           0      81'567     324'735     162'841
         'no_lp':   99'848             0        155     7'234'473     42'225        343'431    135'868      26'245       17'206    172'057        0           0  16'032'204  53'996'082  24'167'653

Lp stats         Component  Iterations  AddedCuts  OPTIMAL  DUAL_F.  DUAL_U.
  'default_lp':          1  34'999'989     99'602  367'621        2  186'034
      'max_lp':          1  16'876'431    109'187   55'625  130'042   42'803

Lp dimension        Final dimension of first component
  'default_lp':    315 rows, 333 columns, 3137 entries
      'max_lp':  1320 rows, 475 columns, 24364 entries

Lp debug         CutPropag  CutEqPropag   Adjust  Overflow        Bad  BadScaling
  'default_lp':          2          727  186'030         0  2'886'138           0
      'max_lp':          0           35   42'793         0  3'325'694           0

Lp pool          Constraints  Updates  Simplif  Merged  Shortened  Split  Strengthened        Cuts/Call
  'default_lp':       10'362   26'602        0       0      1'268      0             0   99'602/150'135
      'max_lp':       12'301   34'413    9'362       2      9'424  1'135         2'105  109'187/187'363

Lp Cut            default_lp  max_lp
          CG_FF:       1'347     120
           CG_K:         717       9
          CG_KL:         627       3
           CG_R:       1'528      64
          CG_RB:          47       3
         CG_RBP:          11       1
         Clique:           -     208
             IB:          44      14
       MIR_1_FF:         620     875
        MIR_1_K:         129      64
       MIR_1_KL:         348      48
        MIR_1_R:         604     614
       MIR_1_RB:           5       2
      MIR_1_RBP:           1       -
      MIR_1_RLT:           -   9'680
       MIR_2_FF:         803     853
        MIR_2_K:         190     158
       MIR_2_KL:         374     133
        MIR_2_R:       3'081   1'001
       MIR_2_RB:         452       1
      MIR_2_RBP:         271       1
       MIR_3_FF:         323     259
        MIR_3_K:          61      32
       MIR_3_KL:         107      37
        MIR_3_R:       1'638     359
       MIR_3_RB:         259       5
      MIR_3_RBP:         121       2
       MIR_4_FF:         167      61
        MIR_4_K:          29      10
       MIR_4_KL:          58       8
        MIR_4_R:       1'222     262
       MIR_4_RB:         104       1
      MIR_4_RBP:          55       3
       MIR_5_FF:          56      21
        MIR_5_K:          11       3
       MIR_5_KL:          10       1
        MIR_5_R:         795     261
       MIR_5_RB:          51       -
      MIR_5_RBP:          33       1
       MIR_6_FF:          39      11
        MIR_6_K:           7       2
       MIR_6_KL:           3       2
        MIR_6_R:         550     224
       MIR_6_RB:          30       2
      MIR_6_RBP:          22       8
   ZERO_HALF_FF:         577     536
    ZERO_HALF_K:          91      17
   ZERO_HALF_KL:         102       4
    ZERO_HALF_R:      81'676  92'987
   ZERO_HALF_RB:          28      10
  ZERO_HALF_RBP:         178     206

LNS stats       Improv/Calls  Closed  Difficulty  TimeLimit
  'rins/rens':   13579/13579     50%    7.85e-01       0.10

LS stats                                    Batches  Restarts/Perturbs    LinMoves    GenMoves  CompoundMoves  Bactracks  WeightUpdates  ScoreComputed
                             'fj_restart':      519                149  14'394'018           0              0          0     12'038'540     19'278'994
                    'fj_restart_compound':      887                149           0   9'029'634        428'030  4'300'499         26'323    158'745'101
                'fj_restart_compound_obj':      512                152           0   5'228'695        360'135  2'434'022         12'140     91'099'352
            'fj_restart_compound_perturb':      880                133           0   8'978'970        385'404  4'296'533         27'076    158'145'887
        'fj_restart_compound_perturb_obj':      851                152           0   8'718'789        394'605  4'161'798         26'349    152'543'533
                       'fj_restart_decay':      669                143  19'454'945           0              0          0        863'073     10'482'232
              'fj_restart_decay_compound':      641                119           0   7'435'983      1'245'295  3'095'098          8'105    114'584'554
          'fj_restart_decay_compound_obj':      601                133           0   6'835'149      1'149'411  2'842'520          7'558    107'301'603
      'fj_restart_decay_compound_perturb':      450                152           0   4'923'292        832'028  2'045'291          5'727     80'047'639
  'fj_restart_decay_compound_perturb_obj':      967                144           0  11'320'580      1'884'961  4'717'433         12'021    173'129'558
                   'fj_restart_decay_obj':      638                155  18'552'727           0              0          0        823'526      9'974'464
               'fj_restart_decay_perturb':      679                163  19'734'854           0              0          0        875'770     10'624'695
           'fj_restart_decay_perturb_obj':      625                165  18'166'623           0              0          0        806'627      9'783'268
                         'fj_restart_obj':      690                164  18'633'089           0              0          0     16'180'975     25'558'085
                     'fj_restart_perturb':      884                158  24'202'651           0              0          0     20'919'714     33'424'873
                 'fj_restart_perturb_obj':      881                136  24'781'232           0              0          0     21'255'630     30'316'969

Solution repositories    Added  Queried  Synchro
    'alternative_path':      0        0        0
      'best_solutions':      0        0        0
   'fj solution hints':  2'359        0    2'359
        'lp solutions':  1'739   13'579    1'737
                'pump':      0        0

Improving bounds shared    Num  Sym
            'default_lp':    3    0
                'max_lp':    2    0
                 'no_lp':  111    0

Clauses shared    #Exported  #Imported  #BinaryRead  #BinaryTotal
   'default_lp':      3'820     81'735        1'035         1'375
       'max_lp':      4'590     86'729        1'165         1'375
        'no_lp':     88'019      7'900        1'375         1'375

LRAT_status: NA
CpSolverResponse summary:
status: INFEASIBLE
objective: NA
best_bound: NA
integers: 346
booleans: 471
conflicts: 24167653
branches: 31597843
propagations: 1843103995
integer_propagations: 469508857
restarts: 80365
lp_iterations: 0
walltime: 3014.18
usertime: 3014.18
deterministic_time: 14958.8
gap_integral: 0

{
  "board_size": 22,
  "parity_proved": 0,
  "target": 34,
  "child_id": 1066,
  "child_count": 2640,
  "partition": "unknown_pair_x_diag_plus_twos_x_diag_minus_twos",
  "build_seconds": 0.07843446731567383,
  "workers": 4,
  "requested_seed": 2026073266,
  "effective_seed": 2026073266,
  "main_diagonal_pair": [
    2,
    17
  ],
  "pair_index": 54,
  "diag_plus_twos": 15,
  "diag_minus_twos": 16,
  "pair_excess": 0,
  "residual_certificate_slack": 112,
  "analytic_minimum_line_defect": 48,
  "analytic_defect_details": {
    "row_costs": {
      "12": 6,
      "13": 3,
      "14": 0,
      "15": 0,
      "16": 0,
      "17": 0
    },
    "column_costs": {
      "12": 6,
      "13": 3,
      "14": 0,
      "15": 0,
      "16": 0,
      "17": 0
    },
    "plus_cost": 48,
    "minus_cost": 0,
    "row_column_minimum": 0
  },
  "maximal_line_constraints": 2455,
  "analytic_infeasible": false,
  "allowed_points": 242,
  "status": "INFEASIBLE",
  "proof_method": "cp_sat_all_lines_with_certificate_profile_cuts",
  "elapsed_seconds": 3014.182613134384,
  "branches": 31597843,
  "conflicts": 24167653
}
